Maximize

5 x_0 + 4 x_1 + 3 x_2 + 4 x_3 + 3 x_4 + 5 x_5 + 2 x_6 + 4 x_7 + 3 x_8 + 2 x_9


Subject To

a0: x_0 + x_1 + x_2 >= 1
a1: x_3 + x_4 >= 1
a2: x_5 + x_6 >= 1
a3: x_7 >= 1
a4: x_8 + x_9 >= 1
b0: x_0 + x_1 + x_2 - x_0 - x_1 - x_2 <= 0
b1: x_3 + x_4 - x_0 - x_1 - x_2 <= 0
b2: x_5 + x_6 - x_0 - x_1 - x_2 <= 0
b3: x_7 - x_0 - x_1 - x_2 <= 0
b4: x_8 + x_9 - x_0 - x_1 - x_2 <= 0
c0: 22 x_0 + 18 x_1 + 24 x_2 + 26 x_3 + 22 x_4 + 7 x_5 + 21 x_6 + 15 x_7 + 12 x_8 + 27 x_9 - 20 x_0 - 20 x_1 - 20 x_2 - 20 x_3 - 20 x_4 - 20 x_5 - 20 x_6 - 20 x_7 - 20 x_8 - 20 x_9 >= 0
d0: 100 x_0 + 130 x_1 + 90 x_2 + 120 x_3 + 70 x_4 + 110 x_5 + 80 x_6 + 90 x_7 + 75 x_8 + 95 x_9 <= 800




Binary

x_0 x_1 x_2 x_3 x_4 x_5 x_6 x_7 x_8 x_9

 


End
